Version identifier: 22.1.0.0 | 2022-03-09 | 1a383f8ce
CPXPARAM_Threads                                 1
CPXPARAM_MIP_Strategy_VariableSelect             3
CPXPARAM_TimeLimit                               599.99998366700004
1 of 1 MIP starts provided solutions.
MIP start 'm1' defined initial solution with objective 4.0000.
Tried aggregator 1 time.
MIP Presolve eliminated 16 rows and 0 columns.
MIP Presolve modified 162 coefficients.
Reduced MIP has 1810 rows, 7800 columns, and 149728 nonzeros.
Reduced MIP has 7800 binaries, 0 generals, 0 SOSs, and 0 indicators.
Presolve time = 0.14 sec. (185.71 ticks)
Probing time = 0.03 sec. (30.05 ticks)
Tried aggregator 1 time.
Detecting symmetries...
Reduced MIP has 1810 rows, 7800 columns, and 149728 nonzeros.
Reduced MIP has 7800 binaries, 0 generals, 0 SOSs, and 0 indicators.
Presolve time = 0.10 sec. (140.51 ticks)
Probing time = 0.03 sec. (30.05 ticks)
Clique table members: 372.
MIP emphasis: balance optimality and feasibility.
MIP search method: dynamic search.
Parallel mode: none, using 1 thread.
Root relaxation solution time = 0.40 sec. (480.02 ticks)

        Nodes                                         Cuts/
   Node  Left     Objective  IInf  Best Integer    Best Bound    ItCnt     Gap

*     0+    0                            4.0000    45150.0000              --- 
      0     0      300.0000   532        4.0000      300.0000     2444     --- 
*     0+    0                          300.0000      300.0000             0.00%
      0     0        cutoff            300.0000      300.0000     2444    0.00%
Elapsed time = 1.76 sec. (1917.75 ticks, tree = 0.01 MB, solutions = 2)

Root node processing (before b&c):
  Real time             =    1.76 sec. (1918.53 ticks)
Sequential b&c:
  Real time             =    0.00 sec. (0.00 ticks)
                          ------------
Total (root+branch&cut) =    1.76 sec. (1918.53 ticks)
Primal:	300
Dual:	300
Status:	Optimal
Time:	1.78
Sequence:
	23
	9
	8
	3
	6
	5
	8
	1
	15
	20
	17
	0
	4
	18
	7
	17
	20
	1
	15
	20
	21
	15
	22
	0
	14
	0
	7
	17
	12
	19
	19
	19
	0
	19
	19
	19
	0
	19
	19
	1
	12
	4
	12
	9
	8
	8
	12
	0
	15
	7
	9
	17
	12
	8
	16
	18
	6
	10
	2
	10
	18
	2
	1
	10
	6
	12
	6
	16
	10
	3
	16
	10
	3
	23
	23
	2
	20
	5
	19
	18
	23
	6
	22
	15
	10
	18
	9
	16
	1
	15
	1
	13
	21
	2
	21
	3
	1
	3
	16
	16
	2
	22
	4
	4
	2
	12
	16
	2
	15
	1
	16
	15
	21
	14
	1
	24
	3
	23
	4
	0
	4
	24
	24
	14
	22
	12
	11
	20
	24
	6
	23
	18
	14
	23
	24
	13
	23
	18
	9
	5
	20
	11
	6
	6
	14
	0
	24
	14
	14
	14
	0
	19
	10
	6
	4
	5
	7
	17
	5
	20
	11
	5
	1
	13
	5
	11
	3
	21
	2
	7
	5
	11
	6
	20
	17
	15
	21
	21
	8
	21
	12
	14
	1
	21
	9
	3
	8
	9
	16
	2
	18
	14
	24
	15
	23
	2
	9
	17
	16
	1
	17
	17
	20
	2
	20
	22
	4
	10
	9
	6
	6
	4
	0
	5
	17
	21
	17
	21
	21
	17
	17
	4
	14
	20
	1
	9
	0
	16
	15
	2
	24
	7
	9
	1
	23
	4
	23
	3
	5
	23
	9
	12
	24
	14
	1
	9
	15
	21
	21
	11
	20
	11
	0
	11
	19
	24
	1
	17
	10
	11
	7
	13
	11
	11
	11
	7
	11
	11
	11
	7
	16
	17
	12
	12
	8
	0
	8
	11
	8
	0
	8
	8
	24
	1
	13
	24
	6
	16
	0
	9
	24
	16
	3
	22
	18
	19
	6
	11
	4
	23
